0 0 0 0
0 1 0 0
0 2 0 0
0 3 0 0
0 4 0 8
0 5 0 6
0 6 0 6
0 7 0 12
0 8 0 14
0 9 0 18
0 10 0 9
0 11 0 9
0 12 0 12
0 13 0 17
0 14 0 8
0 15 0 28
0 16 0 9
0 17 0 22
0 18 0 29
0 19 0 6
0 20 0 27
0 21 0 4
0 22 0 17
0 23 0 18
0 24 0 36
0 25 0 20
0 26 0 30
0 27 0 20
0 28 0 20
0 29 0 41
0 30 0 22
0 31 0 33
0 32 0 55
0 33 0 35
0 34 0 30
0 35 0 14
0 36 0 36
0 37 0 51
0 38 0 38
0 39 0 38
0 40 0 46
0 41 0 17
0 42 0 42
0 43 0 48
0 44 0 66
0 45 0 38
0 46 0 51
0 47 0 53
0 48 0 38
0 49 0 13
0 50 0 79
0 51 0 48
0 52 0 46
0 53 0 17
0 54 0 55
0 55 0 33
0 56 0 81
0 57 0 51
0 58 0 82
0 59 0 36
0 60 0 68
0 61 0 28
0 62 0 58
0 63 0 45
0 64 0 68
0 65 0 81
0 66 0 44
0 67 0 49
0 68 0 92
0 69 0 63
0 70 0 63
0 71 0 88
0 72 0 89
0 73 0 71
0 74 0 88
0 75 0 58
0 76 0 71
0 77 0 102
0 78 0 49
0 79 0 58
0 80 0 92
0 81 0 73
0 82 0 80
0 83 0 114
0 84 0 70
0 85 0 112
0 86 0 78
0 87 0 70
0 88 0 73
0 89 0 97
0 90 0 77
0 91 0 43
0 92 0 104
0 93 0 80
0 94 0 88
0 95 0 101
0 96 0 81
0 97 0 88
0 98 0 97
0 99 0 92
0 100 0 58
0 101 0 80
0 102 0 85
0 103 0 102
0 104 0 120
0 105 0 112
0 106 0 111
0 107 0 132
0 108 0 115
0 109 0 104
0 110 0 124
0 111 0 128
0 112 0 101
0 113 0 138
0 114 0 124
0 115 0 124
0 116 0 132
0 117 0 136
0 118 0 142
0 119 0 132
0 120 0 138
0 121 0 146
